letting n = 8
letting board=[[7, 3, 3, 5, 2, 7, 7, 7], [7, 3, 3, 5, 2, 7, 7, 7], [7, 0, 0, 0, 2, 7, 7, 7], [7, 0, 0, 0, 2, 7, 1, 1], [7, 7, 7, 7, 7, 7, 1, 1], [7, 7, 7, 7, 7, 7, 1, 1], [7, 7, 7, 7, 7, 7, 4, 4], [6, 6, 6, 6, 6, 6, 4, 4]]
